NAME: Random_80_3
ELLAPSED_TIME_(ms): 1
TOUR_SIZE: 2106.1875
TOUR_SECTION
0
9
22
56
25
53
51
26
44
61
41
11
64
67
59
6
78
60
58
46
34
23
19
42
27
24
14
71
3
70
74
54
5
33
8
30
68
73
65
2
17
39
13
1
16
7
48
77
35
62
29
38
72
32
47
43
40
31
57
10
21
49
45
4
79
20
63
37
12
15
69
75
52
18
66
55
36
76
50
28
0
EOF
